nNurses = 56;
nHours = 28;
minHours = 5;
maxHours = 17;
maxConsec = 15;
maxPresence = 9;
demand = [6, 11, 13, 11, 16, 21, 22, 23, 23, 18, 16, 17, 22, 24, 21, 25, 28, 32, 34, 30, 32, 27, 29, 24, 29, 29, 24, 26];
